NAME : XML100_1175_27
DIMENSION : 101
NB_CLUSTERS : 32
CLUSTERING_ALG : KMeans
CLUSTERING_PARAMS : k(36)
CLUSTERS
1 0
2 6 27 52 59 97
3 5 36 56
4 7 15 18 83
5 26 70
6 11 21 50 100
7 53 81 88
8 30 34 51 89
9 22 23 54 68 90
10 12 40 74
11 63 73 82
12 71 87 93
13 43 47 95
14 8 9 10 31 38 96
15 19 33 69 91 99
16 58 72
17 35 41 65
18 80 94
19 55 61 77 79 85 98
20 66 92
21 48 78
22 25 46 49
23 1 45 62 76
24 28 42 67
25 4 75
26 14 17 57
27 13 29 64
28 2 84
29 3 44
30 16 39
31 20 32 37 60
32 24 86
EOF